(set-logic QF_NRA)
(set-info :source |Benchmarks generated from hycomp (https://es-static.fbk.eu/tools/hycomp/). BMC instances of non-linear hybrid automata taken from: Alessandro Cimatti, Sergio Mover, Stefano Tonetta, A quantifier-free SMT encoding of non-linear hybrid automata, FMCAD 2012 and Alessandro Cimatti, Sergio Mover, Stefano Tonetta, Quantier-free encoding of invariants for Hybrid Systems, Formal Methods in System Design. This instance solves a BMC problem of depth 3 and uses the quantifier free encoding with lemmas encoding. Contacts: Sergio Mover (mover@fbk.eu), Stefano Tonetta (tonettas@fbk.eu), Alessandro Cimatti (cimatti@fbk.eu).|)
(set-info :smt-lib-version 2.0)
(set-info :category "industrial")
(set-info :status unsat)
;; MathSAT API call trace
;; generated on Mon Mar 19 10:41:40 2012
(declare-fun b.counter.3__AT1 () Bool)
(declare-fun b.EVENT.0__AT2 () Bool)
(declare-fun b.counter.1__AT2 () Bool)
(declare-fun b.counter.3__AT3 () Bool)
(declare-fun b.EVENT.1__AT0 () Bool)
(declare-fun b.x__AT0 () Real)
(declare-fun b.EVENT.1__AT2 () Bool)
(declare-fun b.counter.2__AT2 () Bool)
(declare-fun b.speed_x__AT1 () Real)
(declare-fun b.counter.3__AT2 () Bool)
(declare-fun b.speed_x__AT3 () Real)
(declare-fun b.time__AT1 () Real)
(declare-fun g__AT0 () Real)
(declare-fun b.y__AT0 () Real)
(declare-fun b.EVENT.0__AT1 () Bool)
(declare-fun b.speed_y__AT1 () Real)
(declare-fun b.EVENT.0__AT3 () Bool)
(declare-fun b.speed_y__AT3 () Real)
(declare-fun b.delta__AT1 () Real)
(declare-fun b.counter.0__AT0 () Bool)
(declare-fun b.EVENT.1__AT1 () Bool)
(declare-fun b.EVENT.1__AT3 () Bool)
(declare-fun b.speed_x__AT2 () Real)
(declare-fun b.counter.1__AT0 () Bool)
(declare-fun b.delta__AT0 () Real)
(declare-fun b.speed_y__AT2 () Real)
(declare-fun b.EVENT.0__AT0 () Bool)
(declare-fun b.x__AT1 () Real)
(declare-fun b.speed_y__AT0 () Real)
(declare-fun b.event_is_timed__AT3 () Bool)
(declare-fun b.time__AT3 () Real)
(declare-fun b.counter.3__AT0 () Bool)
(declare-fun b.event_is_timed__AT0 () Bool)
(declare-fun b.event_is_timed__AT2 () Bool)
(declare-fun speed_loss__AT0 () Real)
(declare-fun b.y__AT1 () Real)
(declare-fun b.y__AT3 () Real)
(declare-fun b.event_is_timed__AT1 () Bool)
(declare-fun b.counter.0__AT1 () Bool)
(declare-fun b.speed_x__AT0 () Real)
(declare-fun b.delta__AT3 () Real)
(declare-fun b.counter.0__AT3 () Bool)
(declare-fun b.counter.1__AT1 () Bool)
(declare-fun b.x__AT3 () Real)
(declare-fun b.time__AT2 () Real)
(declare-fun b.time__AT0 () Real)
(declare-fun b.y__AT2 () Real)
(declare-fun b.counter.1__AT3 () Bool)
(declare-fun b.counter.2__AT0 () Bool)
(declare-fun b.counter.2__AT1 () Bool)
(declare-fun b.delta__AT2 () Real)
(declare-fun b.counter.0__AT2 () Bool)
(declare-fun b.counter.2__AT3 () Bool)
(declare-fun b.x__AT2 () Real)
(assert (let ((.def_82 (* (- 1.0) g__AT0)))
(let ((.def_83 (* (/ 1 2) .def_82)))
(let ((.def_90 (* 2.0 .def_83)))
(let ((.def_134 (* (- 1.0) .def_90)))
(let ((.def_837 (* .def_134 b.delta__AT3)))
(let ((.def_840 (<= .def_837 b.speed_y__AT3)))
(let ((.def_847 (not .def_840)))
(let ((.def_800 (<= 0.0 b.speed_y__AT3)))
(let ((.def_848 (or .def_800 .def_847)))
(let ((.def_838 (<= b.speed_y__AT3 .def_837)))
(let ((.def_814 (<= b.speed_y__AT3 0.0 )))
(let ((.def_815 (not .def_814)))
(let ((.def_846 (or .def_815 .def_838)))
(let ((.def_849 (and .def_846 .def_848)))
(let ((.def_125 (<= g__AT0 0.0 )))
(let ((.def_850 (or .def_125 .def_849)))
(let ((.def_842 (not .def_838)))
(let ((.def_843 (or .def_814 .def_842)))
(let ((.def_801 (not .def_800)))
(let ((.def_841 (or .def_801 .def_840)))
(let ((.def_844 (and .def_841 .def_843)))
(let ((.def_130 (<= 0.0 g__AT0)))
(let ((.def_845 (or .def_130 .def_844)))
(let ((.def_851 (and .def_845 .def_850)))
(let ((.def_839 (and .def_814 .def_838)))
(let ((.def_852 (and .def_839 .def_851)))
(let ((.def_796 (* .def_90 b.delta__AT3)))
(let ((.def_797 (+ b.speed_y__AT3 .def_796)))
(let ((.def_812 (<= .def_797 0.0 )))
(let ((.def_813 (not .def_812)))
(let ((.def_832 (or .def_813 .def_814)))
(let ((.def_798 (<= 0.0 .def_797)))
(let ((.def_831 (or .def_798 .def_801)))
(let ((.def_833 (and .def_831 .def_832)))
(let ((.def_834 (or .def_130 .def_833)))
(let ((.def_799 (not .def_798)))
(let ((.def_828 (or .def_799 .def_800)))
(let ((.def_827 (or .def_812 .def_815)))
(let ((.def_829 (and .def_827 .def_828)))
(let ((.def_830 (or .def_125 .def_829)))
(let ((.def_835 (and .def_830 .def_834)))
(let ((.def_826 (and .def_798 .def_800)))
(let ((.def_836 (and .def_826 .def_835)))
(let ((.def_853 (or .def_836 .def_852)))
(let ((.def_791 (* b.speed_y__AT3 b.delta__AT3)))
(let ((.def_789 (* b.delta__AT3 b.delta__AT3)))
(let ((.def_790 (* .def_83 .def_789)))
(let ((.def_792 (+ .def_790 .def_791)))
(let ((.def_793 (+ b.y__AT3 .def_792)))
(let ((.def_806 (<= .def_793 0.0 )))
(let ((.def_820 (not .def_806)))
(let ((.def_804 (<= b.y__AT3 0.0 )))
(let ((.def_821 (or .def_804 .def_820)))
(let ((.def_771 (<= 0.0 b.y__AT3)))
(let ((.def_818 (not .def_771)))
(let ((.def_794 (<= 0.0 .def_793)))
(let ((.def_819 (or .def_794 .def_818)))
(let ((.def_822 (and .def_819 .def_821)))
(let ((.def_816 (or .def_813 .def_815)))
(let ((.def_817 (not .def_816)))
(let ((.def_823 (or .def_817 .def_822)))
(let ((.def_808 (not .def_794)))
(let ((.def_809 (or .def_771 .def_808)))
(let ((.def_805 (not .def_804)))
(let ((.def_807 (or .def_805 .def_806)))
(let ((.def_810 (and .def_807 .def_809)))
(let ((.def_802 (or .def_799 .def_801)))
(let ((.def_803 (not .def_802)))
(let ((.def_811 (or .def_803 .def_810)))
(let ((.def_824 (and .def_811 .def_823)))
(let ((.def_795 (and .def_771 .def_794)))
(let ((.def_825 (and .def_795 .def_824)))
(let ((.def_854 (and .def_825 .def_853)))
(let ((.def_63 (<= g__AT0 10.0 )))
(let ((.def_62 (<= 8.0 g__AT0)))
(let ((.def_64 (and .def_62 .def_63)))
(let ((.def_855 (and .def_64 .def_854)))
(let ((.def_71 (<= speed_loss__AT0 (/ 1 2))))
(let ((.def_68 (<= (/ 1 10) speed_loss__AT0)))
(let ((.def_72 (and .def_68 .def_71)))
(let ((.def_856 (and .def_72 .def_855)))
(let ((.def_443 (not b.counter.0__AT2)))
(let ((.def_781 (or b.counter.1__AT2 .def_443)))
(let ((.def_782 (or b.counter.2__AT2 .def_781)))
(let ((.def_431 (not b.counter.1__AT2)))
(let ((.def_776 (and .def_431 .def_443)))
(let ((.def_438 (not b.counter.2__AT2)))
(let ((.def_780 (or .def_438 .def_776)))
(let ((.def_783 (and .def_780 .def_782)))
(let ((.def_784 (or b.counter.3__AT2 .def_783)))
(let ((.def_777 (or b.counter.2__AT2 .def_776)))
(let ((.def_775 (or .def_431 .def_438)))
(let ((.def_778 (and .def_775 .def_777)))
(let ((.def_453 (not b.counter.3__AT2)))
(let ((.def_779 (or .def_453 .def_778)))
(let ((.def_785 (and .def_779 .def_784)))
(let ((.def_73 (and .def_64 .def_72)))
(let ((.def_772 (and .def_73 .def_771)))
(let ((.def_768 (not b.EVENT.0__AT3)))
(let ((.def_766 (not b.EVENT.1__AT3)))
(let ((.def_769 (or .def_766 .def_768)))
(let ((.def_9 (not b.counter.0__AT3)))
(let ((.def_6 (not b.counter.1__AT3)))
(let ((.def_759 (or .def_6 .def_9)))
(let ((.def_763 (or b.counter.3__AT3 .def_759)))
(let ((.def_760 (or b.counter.2__AT3 .def_759)))
(let ((.def_4 (not b.counter.2__AT3)))
(let ((.def_758 (or .def_4 .def_9)))
(let ((.def_761 (and .def_758 .def_760)))
(let ((.def_14 (not b.counter.3__AT3)))
(let ((.def_762 (or .def_14 .def_761)))
(let ((.def_764 (and .def_762 .def_763)))
(let ((.def_770 (and .def_764 .def_769)))
(let ((.def_773 (and .def_770 .def_772)))
(let ((.def_753 (<= 0.0 b.delta__AT2)))
(let ((.def_541 (not b.EVENT.0__AT2)))
(let ((.def_539 (not b.EVENT.1__AT2)))
(let ((.def_657 (and .def_539 .def_541)))
(let ((.def_658 (not .def_657)))
(let ((.def_754 (or .def_658 .def_753)))
(let ((.def_755 (or b.EVENT.1__AT2 .def_754)))
(let ((.def_702 (= b.counter.0__AT3 b.counter.0__AT2)))
(let ((.def_700 (= b.counter.1__AT3 b.counter.1__AT2)))
(let ((.def_698 (= b.counter.2__AT3 b.counter.2__AT2)))
(let ((.def_697 (= b.counter.3__AT3 b.counter.3__AT2)))
(let ((.def_699 (and .def_697 .def_698)))
(let ((.def_701 (and .def_699 .def_700)))
(let ((.def_703 (and .def_701 .def_702)))
(let ((.def_750 (or .def_658 .def_703)))
(let ((.def_751 (or b.EVENT.1__AT2 .def_750)))
(let ((.def_710 (= b.x__AT2 b.x__AT3)))
(let ((.def_707 (= b.y__AT2 b.y__AT3)))
(let ((.def_744 (and .def_707 .def_710)))
(let ((.def_638 (= b.speed_x__AT2 b.speed_x__AT3)))
(let ((.def_745 (and .def_638 .def_744)))
(let ((.def_696 (= b.speed_y__AT2 b.speed_y__AT3)))
(let ((.def_746 (and .def_696 .def_745)))
(let ((.def_741 (= b.delta__AT2 0.0 )))
(let ((.def_742 (and .def_657 .def_741)))
(let ((.def_743 (not .def_742)))
(let ((.def_747 (or .def_743 .def_746)))
(let ((.def_748 (or b.EVENT.1__AT2 .def_747)))
(let ((.def_721 (= b.time__AT2 b.time__AT3)))
(let ((.def_733 (and .def_710 .def_721)))
(let ((.def_734 (and .def_707 .def_733)))
(let ((.def_735 (and .def_638 .def_734)))
(let ((.def_736 (and .def_696 .def_735)))
(let ((.def_737 (and .def_703 .def_736)))
(let ((.def_738 (or .def_539 .def_737)))
(let ((.def_724 (* (- 1.0) b.time__AT3)))
(let ((.def_727 (+ b.delta__AT2 .def_724)))
(let ((.def_728 (+ b.time__AT2 .def_727)))
(let ((.def_729 (= .def_728 0.0 )))
(let ((.def_730 (or .def_658 .def_729)))
(let ((.def_731 (or b.EVENT.1__AT2 .def_730)))
(let ((.def_722 (or .def_657 .def_721)))
(let ((.def_723 (or b.EVENT.1__AT2 .def_722)))
(let ((.def_732 (and .def_723 .def_731)))
(let ((.def_739 (and .def_732 .def_738)))
(let ((.def_717 (= .def_658 b.event_is_timed__AT3)))
(let ((.def_715 (= b.event_is_timed__AT2 .def_657)))
(let ((.def_718 (and .def_715 .def_717)))
(let ((.def_704 (and .def_696 .def_703)))
(let ((.def_660 (= b.y__AT2 0.0 )))
(let ((.def_573 (<= 0.0 b.speed_y__AT2)))
(let ((.def_574 (not .def_573)))
(let ((.def_661 (and .def_574 .def_660)))
(let ((.def_705 (or .def_661 .def_704)))
(let ((.def_673 (or .def_9 b.counter.0__AT2)))
(let ((.def_672 (or b.counter.0__AT3 .def_443)))
(let ((.def_674 (and .def_672 .def_673)))
(let ((.def_675 (and .def_6 .def_674)))
(let ((.def_676 (or b.counter.1__AT2 .def_675)))
(let ((.def_671 (or b.counter.1__AT3 .def_431)))
(let ((.def_677 (and .def_671 .def_676)))
(let ((.def_688 (and .def_4 .def_677)))
(let ((.def_689 (or b.counter.2__AT2 .def_688)))
(let ((.def_683 (and .def_6 .def_443)))
(let ((.def_684 (or b.counter.1__AT2 .def_683)))
(let ((.def_685 (and .def_671 .def_684)))
(let ((.def_686 (and b.counter.2__AT3 .def_685)))
(let ((.def_687 (or .def_438 .def_686)))
(let ((.def_690 (and .def_687 .def_689)))
(let ((.def_691 (and b.counter.3__AT3 .def_690)))
(let ((.def_692 (or b.counter.3__AT2 .def_691)))
(let ((.def_678 (and b.counter.2__AT3 .def_677)))
(let ((.def_679 (or b.counter.2__AT2 .def_678)))
(let ((.def_667 (or b.counter.1__AT3 b.counter.1__AT2)))
(let ((.def_665 (and .def_6 b.counter.0__AT3)))
(let ((.def_666 (or .def_431 .def_665)))
(let ((.def_668 (and .def_666 .def_667)))
(let ((.def_669 (and .def_4 .def_668)))
(let ((.def_670 (or .def_438 .def_669)))
(let ((.def_680 (and .def_670 .def_679)))
(let ((.def_681 (and .def_14 .def_680)))
(let ((.def_682 (or .def_453 .def_681)))
(let ((.def_693 (and .def_682 .def_692)))
(let ((.def_407 (* (- 1.0) b.speed_y__AT2)))
(let ((.def_191 (* (- 1.0) speed_loss__AT0)))
(let ((.def_192 (+ 1.0 .def_191)))
(let ((.def_663 (* .def_192 .def_407)))
(let ((.def_664 (= b.speed_y__AT3 .def_663)))
(let ((.def_694 (and .def_664 .def_693)))
(let ((.def_662 (not .def_661)))
(let ((.def_695 (or .def_662 .def_694)))
(let ((.def_706 (and .def_695 .def_705)))
(let ((.def_708 (and .def_706 .def_707)))
(let ((.def_709 (and .def_638 .def_708)))
(let ((.def_711 (and .def_709 .def_710)))
(let ((.def_712 (or .def_657 .def_711)))
(let ((.def_713 (or b.EVENT.1__AT2 .def_712)))
(let ((.def_648 (* (- 1.0) b.y__AT3)))
(let ((.def_564 (* b.speed_y__AT2 b.delta__AT2)))
(let ((.def_652 (+ .def_564 .def_648)))
(let ((.def_562 (* b.delta__AT2 b.delta__AT2)))
(let ((.def_563 (* .def_83 .def_562)))
(let ((.def_653 (+ .def_563 .def_652)))
(let ((.def_654 (+ b.y__AT2 .def_653)))
(let ((.def_655 (= .def_654 0.0 )))
(let ((.def_642 (* (- 1.0) b.speed_y__AT3)))
(let ((.def_640 (* .def_82 b.delta__AT2)))
(let ((.def_643 (+ .def_640 .def_642)))
(let ((.def_644 (+ b.speed_y__AT2 .def_643)))
(let ((.def_645 (= .def_644 0.0 )))
(let ((.def_633 (* (- 1.0) b.x__AT3)))
(let ((.def_631 (* b.speed_x__AT2 b.delta__AT2)))
(let ((.def_634 (+ .def_631 .def_633)))
(let ((.def_635 (+ b.x__AT2 .def_634)))
(let ((.def_636 (= .def_635 0.0 )))
(let ((.def_639 (and .def_636 .def_638)))
(let ((.def_646 (and .def_639 .def_645)))
(let ((.def_656 (and .def_646 .def_655)))
(let ((.def_659 (or .def_656 .def_658)))
(let ((.def_714 (and .def_659 .def_713)))
(let ((.def_719 (and .def_714 .def_718)))
(let ((.def_740 (and .def_719 .def_739)))
(let ((.def_749 (and .def_740 .def_748)))
(let ((.def_752 (and .def_749 .def_751)))
(let ((.def_756 (and .def_752 .def_755)))
(let ((.def_757 (and .def_539 .def_756)))
(let ((.def_774 (and .def_757 .def_773)))
(let ((.def_786 (and .def_774 .def_785)))
(let ((.def_610 (* .def_134 b.delta__AT2)))
(let ((.def_613 (<= .def_610 b.speed_y__AT2)))
(let ((.def_620 (not .def_613)))
(let ((.def_621 (or .def_573 .def_620)))
(let ((.def_611 (<= b.speed_y__AT2 .def_610)))
(let ((.def_587 (<= b.speed_y__AT2 0.0 )))
(let ((.def_588 (not .def_587)))
(let ((.def_619 (or .def_588 .def_611)))
(let ((.def_622 (and .def_619 .def_621)))
(let ((.def_623 (or .def_125 .def_622)))
(let ((.def_615 (not .def_611)))
(let ((.def_616 (or .def_587 .def_615)))
(let ((.def_614 (or .def_574 .def_613)))
(let ((.def_617 (and .def_614 .def_616)))
(let ((.def_618 (or .def_130 .def_617)))
(let ((.def_624 (and .def_618 .def_623)))
(let ((.def_612 (and .def_587 .def_611)))
(let ((.def_625 (and .def_612 .def_624)))
(let ((.def_569 (* .def_90 b.delta__AT2)))
(let ((.def_570 (+ b.speed_y__AT2 .def_569)))
(let ((.def_585 (<= .def_570 0.0 )))
(let ((.def_586 (not .def_585)))
(let ((.def_605 (or .def_586 .def_587)))
(let ((.def_571 (<= 0.0 .def_570)))
(let ((.def_604 (or .def_571 .def_574)))
(let ((.def_606 (and .def_604 .def_605)))
(let ((.def_607 (or .def_130 .def_606)))
(let ((.def_572 (not .def_571)))
(let ((.def_601 (or .def_572 .def_573)))
(let ((.def_600 (or .def_585 .def_588)))
(let ((.def_602 (and .def_600 .def_601)))
(let ((.def_603 (or .def_125 .def_602)))
(let ((.def_608 (and .def_603 .def_607)))
(let ((.def_599 (and .def_571 .def_573)))
(let ((.def_609 (and .def_599 .def_608)))
(let ((.def_626 (or .def_609 .def_625)))
(let ((.def_565 (+ .def_563 .def_564)))
(let ((.def_566 (+ b.y__AT2 .def_565)))
(let ((.def_579 (<= .def_566 0.0 )))
(let ((.def_593 (not .def_579)))
(let ((.def_577 (<= b.y__AT2 0.0 )))
(let ((.def_594 (or .def_577 .def_593)))
(let ((.def_544 (<= 0.0 b.y__AT2)))
(let ((.def_591 (not .def_544)))
(let ((.def_567 (<= 0.0 .def_566)))
(let ((.def_592 (or .def_567 .def_591)))
(let ((.def_595 (and .def_592 .def_594)))
(let ((.def_589 (or .def_586 .def_588)))
(let ((.def_590 (not .def_589)))
(let ((.def_596 (or .def_590 .def_595)))
(let ((.def_581 (not .def_567)))
(let ((.def_582 (or .def_544 .def_581)))
(let ((.def_578 (not .def_577)))
(let ((.def_580 (or .def_578 .def_579)))
(let ((.def_583 (and .def_580 .def_582)))
(let ((.def_575 (or .def_572 .def_574)))
(let ((.def_576 (not .def_575)))
(let ((.def_584 (or .def_576 .def_583)))
(let ((.def_597 (and .def_584 .def_596)))
(let ((.def_568 (and .def_544 .def_567)))
(let ((.def_598 (and .def_568 .def_597)))
(let ((.def_627 (and .def_598 .def_626)))
(let ((.def_628 (and .def_64 .def_627)))
(let ((.def_629 (and .def_72 .def_628)))
(let ((.def_209 (not b.counter.0__AT1)))
(let ((.def_554 (or b.counter.1__AT1 .def_209)))
(let ((.def_555 (or b.counter.2__AT1 .def_554)))
(let ((.def_197 (not b.counter.1__AT1)))
(let ((.def_549 (and .def_197 .def_209)))
(let ((.def_204 (not b.counter.2__AT1)))
(let ((.def_553 (or .def_204 .def_549)))
(let ((.def_556 (and .def_553 .def_555)))
(let ((.def_557 (or b.counter.3__AT1 .def_556)))
(let ((.def_550 (or b.counter.2__AT1 .def_549)))
(let ((.def_548 (or .def_197 .def_204)))
(let ((.def_551 (and .def_548 .def_550)))
(let ((.def_219 (not b.counter.3__AT1)))
(let ((.def_552 (or .def_219 .def_551)))
(let ((.def_558 (and .def_552 .def_557)))
(let ((.def_545 (and .def_73 .def_544)))
(let ((.def_542 (or .def_539 .def_541)))
(let ((.def_532 (or .def_431 .def_443)))
(let ((.def_536 (or b.counter.3__AT2 .def_532)))
(let ((.def_533 (or b.counter.2__AT2 .def_532)))
(let ((.def_531 (or .def_438 .def_443)))
(let ((.def_534 (and .def_531 .def_533)))
(let ((.def_535 (or .def_453 .def_534)))
(let ((.def_537 (and .def_535 .def_536)))
(let ((.def_543 (and .def_537 .def_542)))
(let ((.def_546 (and .def_543 .def_545)))
(let ((.def_526 (<= 0.0 b.delta__AT1)))
(let ((.def_307 (not b.EVENT.0__AT1)))
(let ((.def_305 (not b.EVENT.1__AT1)))
(let ((.def_422 (and .def_305 .def_307)))
(let ((.def_423 (not .def_422)))
(let ((.def_527 (or .def_423 .def_526)))
(let ((.def_528 (or b.EVENT.1__AT1 .def_527)))
(let ((.def_475 (= b.counter.0__AT1 b.counter.0__AT2)))
(let ((.def_473 (= b.counter.1__AT1 b.counter.1__AT2)))
(let ((.def_471 (= b.counter.2__AT1 b.counter.2__AT2)))
(let ((.def_470 (= b.counter.3__AT1 b.counter.3__AT2)))
(let ((.def_472 (and .def_470 .def_471)))
(let ((.def_474 (and .def_472 .def_473)))
(let ((.def_476 (and .def_474 .def_475)))
(let ((.def_523 (or .def_423 .def_476)))
(let ((.def_524 (or b.EVENT.1__AT1 .def_523)))
(let ((.def_483 (= b.x__AT1 b.x__AT2)))
(let ((.def_480 (= b.y__AT1 b.y__AT2)))
(let ((.def_517 (and .def_480 .def_483)))
(let ((.def_403 (= b.speed_x__AT1 b.speed_x__AT2)))
(let ((.def_518 (and .def_403 .def_517)))
(let ((.def_469 (= b.speed_y__AT1 b.speed_y__AT2)))
(let ((.def_519 (and .def_469 .def_518)))
(let ((.def_514 (= b.delta__AT1 0.0 )))
(let ((.def_515 (and .def_422 .def_514)))
(let ((.def_516 (not .def_515)))
(let ((.def_520 (or .def_516 .def_519)))
(let ((.def_521 (or b.EVENT.1__AT1 .def_520)))
(let ((.def_494 (= b.time__AT1 b.time__AT2)))
(let ((.def_506 (and .def_483 .def_494)))
(let ((.def_507 (and .def_480 .def_506)))
(let ((.def_508 (and .def_403 .def_507)))
(let ((.def_509 (and .def_469 .def_508)))
(let ((.def_510 (and .def_476 .def_509)))
(let ((.def_511 (or .def_305 .def_510)))
(let ((.def_497 (* (- 1.0) b.time__AT2)))
(let ((.def_500 (+ b.delta__AT1 .def_497)))
(let ((.def_501 (+ b.time__AT1 .def_500)))
(let ((.def_502 (= .def_501 0.0 )))
(let ((.def_503 (or .def_423 .def_502)))
(let ((.def_504 (or b.EVENT.1__AT1 .def_503)))
(let ((.def_495 (or .def_422 .def_494)))
(let ((.def_496 (or b.EVENT.1__AT1 .def_495)))
(let ((.def_505 (and .def_496 .def_504)))
(let ((.def_512 (and .def_505 .def_511)))
(let ((.def_490 (= .def_423 b.event_is_timed__AT2)))
(let ((.def_488 (= b.event_is_timed__AT1 .def_422)))
(let ((.def_491 (and .def_488 .def_490)))
(let ((.def_477 (and .def_469 .def_476)))
(let ((.def_425 (= b.y__AT1 0.0 )))
(let ((.def_338 (<= 0.0 b.speed_y__AT1)))
(let ((.def_339 (not .def_338)))
(let ((.def_426 (and .def_339 .def_425)))
(let ((.def_478 (or .def_426 .def_477)))
(let ((.def_444 (or b.counter.0__AT1 .def_443)))
(let ((.def_442 (or .def_209 b.counter.0__AT2)))
(let ((.def_445 (and .def_442 .def_444)))
(let ((.def_446 (and .def_431 .def_445)))
(let ((.def_447 (or b.counter.1__AT1 .def_446)))
(let ((.def_441 (or .def_197 b.counter.1__AT2)))
(let ((.def_448 (and .def_441 .def_447)))
(let ((.def_461 (and .def_438 .def_448)))
(let ((.def_462 (or b.counter.2__AT1 .def_461)))
(let ((.def_456 (and .def_209 .def_431)))
(let ((.def_457 (or b.counter.1__AT1 .def_456)))
(let ((.def_458 (and .def_441 .def_457)))
(let ((.def_459 (and b.counter.2__AT2 .def_458)))
(let ((.def_460 (or .def_204 .def_459)))
(let ((.def_463 (and .def_460 .def_462)))
(let ((.def_464 (and b.counter.3__AT2 .def_463)))
(let ((.def_465 (or b.counter.3__AT1 .def_464)))
(let ((.def_449 (and b.counter.2__AT2 .def_448)))
(let ((.def_450 (or b.counter.2__AT1 .def_449)))
(let ((.def_435 (or b.counter.1__AT1 b.counter.1__AT2)))
(let ((.def_433 (and .def_431 b.counter.0__AT2)))
(let ((.def_434 (or .def_197 .def_433)))
(let ((.def_436 (and .def_434 .def_435)))
(let ((.def_439 (and .def_436 .def_438)))
(let ((.def_440 (or .def_204 .def_439)))
(let ((.def_451 (and .def_440 .def_450)))
(let ((.def_454 (and .def_451 .def_453)))
(let ((.def_455 (or .def_219 .def_454)))
(let ((.def_466 (and .def_455 .def_465)))
(let ((.def_171 (* (- 1.0) b.speed_y__AT1)))
(let ((.def_428 (* .def_171 .def_192)))
(let ((.def_429 (= b.speed_y__AT2 .def_428)))
(let ((.def_467 (and .def_429 .def_466)))
(let ((.def_427 (not .def_426)))
(let ((.def_468 (or .def_427 .def_467)))
(let ((.def_479 (and .def_468 .def_478)))
(let ((.def_481 (and .def_479 .def_480)))
(let ((.def_482 (and .def_403 .def_481)))
(let ((.def_484 (and .def_482 .def_483)))
(let ((.def_485 (or .def_422 .def_484)))
(let ((.def_486 (or b.EVENT.1__AT1 .def_485)))
(let ((.def_413 (* (- 1.0) b.y__AT2)))
(let ((.def_329 (* b.speed_y__AT1 b.delta__AT1)))
(let ((.def_417 (+ .def_329 .def_413)))
(let ((.def_327 (* b.delta__AT1 b.delta__AT1)))
(let ((.def_328 (* .def_83 .def_327)))
(let ((.def_418 (+ .def_328 .def_417)))
(let ((.def_419 (+ b.y__AT1 .def_418)))
(let ((.def_420 (= .def_419 0.0 )))
(let ((.def_405 (* .def_82 b.delta__AT1)))
(let ((.def_408 (+ .def_405 .def_407)))
(let ((.def_409 (+ b.speed_y__AT1 .def_408)))
(let ((.def_410 (= .def_409 0.0 )))
(let ((.def_398 (* (- 1.0) b.x__AT2)))
(let ((.def_396 (* b.speed_x__AT1 b.delta__AT1)))
(let ((.def_399 (+ .def_396 .def_398)))
(let ((.def_400 (+ b.x__AT1 .def_399)))
(let ((.def_401 (= .def_400 0.0 )))
(let ((.def_404 (and .def_401 .def_403)))
(let ((.def_411 (and .def_404 .def_410)))
(let ((.def_421 (and .def_411 .def_420)))
(let ((.def_424 (or .def_421 .def_423)))
(let ((.def_487 (and .def_424 .def_486)))
(let ((.def_492 (and .def_487 .def_491)))
(let ((.def_513 (and .def_492 .def_512)))
(let ((.def_522 (and .def_513 .def_521)))
(let ((.def_525 (and .def_522 .def_524)))
(let ((.def_529 (and .def_525 .def_528)))
(let ((.def_530 (and .def_305 .def_529)))
(let ((.def_547 (and .def_530 .def_546)))
(let ((.def_559 (and .def_547 .def_558)))
(let ((.def_375 (* .def_134 b.delta__AT1)))
(let ((.def_378 (<= .def_375 b.speed_y__AT1)))
(let ((.def_385 (not .def_378)))
(let ((.def_386 (or .def_338 .def_385)))
(let ((.def_376 (<= b.speed_y__AT1 .def_375)))
(let ((.def_352 (<= b.speed_y__AT1 0.0 )))
(let ((.def_353 (not .def_352)))
(let ((.def_384 (or .def_353 .def_376)))
(let ((.def_387 (and .def_384 .def_386)))
(let ((.def_388 (or .def_125 .def_387)))
(let ((.def_380 (not .def_376)))
(let ((.def_381 (or .def_352 .def_380)))
(let ((.def_379 (or .def_339 .def_378)))
(let ((.def_382 (and .def_379 .def_381)))
(let ((.def_383 (or .def_130 .def_382)))
(let ((.def_389 (and .def_383 .def_388)))
(let ((.def_377 (and .def_352 .def_376)))
(let ((.def_390 (and .def_377 .def_389)))
(let ((.def_334 (* .def_90 b.delta__AT1)))
(let ((.def_335 (+ b.speed_y__AT1 .def_334)))
(let ((.def_350 (<= .def_335 0.0 )))
(let ((.def_351 (not .def_350)))
(let ((.def_370 (or .def_351 .def_352)))
(let ((.def_336 (<= 0.0 .def_335)))
(let ((.def_369 (or .def_336 .def_339)))
(let ((.def_371 (and .def_369 .def_370)))
(let ((.def_372 (or .def_130 .def_371)))
(let ((.def_337 (not .def_336)))
(let ((.def_366 (or .def_337 .def_338)))
(let ((.def_365 (or .def_350 .def_353)))
(let ((.def_367 (and .def_365 .def_366)))
(let ((.def_368 (or .def_125 .def_367)))
(let ((.def_373 (and .def_368 .def_372)))
(let ((.def_364 (and .def_336 .def_338)))
(let ((.def_374 (and .def_364 .def_373)))
(let ((.def_391 (or .def_374 .def_390)))
(let ((.def_330 (+ .def_328 .def_329)))
(let ((.def_331 (+ b.y__AT1 .def_330)))
(let ((.def_344 (<= .def_331 0.0 )))
(let ((.def_358 (not .def_344)))
(let ((.def_342 (<= b.y__AT1 0.0 )))
(let ((.def_359 (or .def_342 .def_358)))
(let ((.def_310 (<= 0.0 b.y__AT1)))
(let ((.def_356 (not .def_310)))
(let ((.def_332 (<= 0.0 .def_331)))
(let ((.def_357 (or .def_332 .def_356)))
(let ((.def_360 (and .def_357 .def_359)))
(let ((.def_354 (or .def_351 .def_353)))
(let ((.def_355 (not .def_354)))
(let ((.def_361 (or .def_355 .def_360)))
(let ((.def_346 (not .def_332)))
(let ((.def_347 (or .def_310 .def_346)))
(let ((.def_343 (not .def_342)))
(let ((.def_345 (or .def_343 .def_344)))
(let ((.def_348 (and .def_345 .def_347)))
(let ((.def_340 (or .def_337 .def_339)))
(let ((.def_341 (not .def_340)))
(let ((.def_349 (or .def_341 .def_348)))
(let ((.def_362 (and .def_349 .def_361)))
(let ((.def_333 (and .def_310 .def_332)))
(let ((.def_363 (and .def_333 .def_362)))
(let ((.def_392 (and .def_363 .def_391)))
(let ((.def_393 (and .def_64 .def_392)))
(let ((.def_394 (and .def_72 .def_393)))
(let ((.def_38 (not b.counter.0__AT0)))
(let ((.def_319 (or b.counter.1__AT0 .def_38)))
(let ((.def_320 (or b.counter.2__AT0 .def_319)))
(let ((.def_41 (not b.counter.2__AT0)))
(let ((.def_36 (not b.counter.1__AT0)))
(let ((.def_39 (and .def_36 .def_38)))
(let ((.def_318 (or .def_39 .def_41)))
(let ((.def_321 (and .def_318 .def_320)))
(let ((.def_322 (or b.counter.3__AT0 .def_321)))
(let ((.def_315 (or .def_39 b.counter.2__AT0)))
(let ((.def_314 (or .def_36 .def_41)))
(let ((.def_316 (and .def_314 .def_315)))
(let ((.def_44 (not b.counter.3__AT0)))
(let ((.def_317 (or .def_44 .def_316)))
(let ((.def_323 (and .def_317 .def_322)))
(let ((.def_311 (and .def_73 .def_310)))
(let ((.def_308 (or .def_305 .def_307)))
(let ((.def_298 (or .def_197 .def_209)))
(let ((.def_302 (or b.counter.3__AT1 .def_298)))
(let ((.def_299 (or b.counter.2__AT1 .def_298)))
(let ((.def_297 (or .def_204 .def_209)))
(let ((.def_300 (and .def_297 .def_299)))
(let ((.def_301 (or .def_219 .def_300)))
(let ((.def_303 (and .def_301 .def_302)))
(let ((.def_309 (and .def_303 .def_308)))
(let ((.def_312 (and .def_309 .def_311)))
(let ((.def_292 (<= 0.0 b.delta__AT0)))
(let ((.def_57 (not b.EVENT.0__AT0)))
(let ((.def_55 (not b.EVENT.1__AT0)))
(let ((.def_185 (and .def_55 .def_57)))
(let ((.def_186 (not .def_185)))
(let ((.def_293 (or .def_186 .def_292)))
(let ((.def_294 (or b.EVENT.1__AT0 .def_293)))
(let ((.def_241 (= b.counter.0__AT0 b.counter.0__AT1)))
(let ((.def_239 (= b.counter.1__AT0 b.counter.1__AT1)))
(let ((.def_237 (= b.counter.2__AT0 b.counter.2__AT1)))
(let ((.def_236 (= b.counter.3__AT0 b.counter.3__AT1)))
(let ((.def_238 (and .def_236 .def_237)))
(let ((.def_240 (and .def_238 .def_239)))
(let ((.def_242 (and .def_240 .def_241)))
(let ((.def_289 (or .def_186 .def_242)))
(let ((.def_290 (or b.EVENT.1__AT0 .def_289)))
(let ((.def_249 (= b.x__AT1 b.x__AT0)))
(let ((.def_246 (= b.y__AT0 b.y__AT1)))
(let ((.def_283 (and .def_246 .def_249)))
(let ((.def_167 (= b.speed_x__AT0 b.speed_x__AT1)))
(let ((.def_284 (and .def_167 .def_283)))
(let ((.def_235 (= b.speed_y__AT0 b.speed_y__AT1)))
(let ((.def_285 (and .def_235 .def_284)))
(let ((.def_280 (= b.delta__AT0 0.0 )))
(let ((.def_281 (and .def_185 .def_280)))
(let ((.def_282 (not .def_281)))
(let ((.def_286 (or .def_282 .def_285)))
(let ((.def_287 (or b.EVENT.1__AT0 .def_286)))
(let ((.def_260 (= b.time__AT0 b.time__AT1)))
(let ((.def_272 (and .def_249 .def_260)))
(let ((.def_273 (and .def_246 .def_272)))
(let ((.def_274 (and .def_167 .def_273)))
(let ((.def_275 (and .def_235 .def_274)))
(let ((.def_276 (and .def_242 .def_275)))
(let ((.def_277 (or .def_55 .def_276)))
(let ((.def_263 (* (- 1.0) b.time__AT1)))
(let ((.def_266 (+ b.delta__AT0 .def_263)))
(let ((.def_267 (+ b.time__AT0 .def_266)))
(let ((.def_268 (= .def_267 0.0 )))
(let ((.def_269 (or .def_186 .def_268)))
(let ((.def_270 (or b.EVENT.1__AT0 .def_269)))
(let ((.def_261 (or .def_185 .def_260)))
(let ((.def_262 (or b.EVENT.1__AT0 .def_261)))
(let ((.def_271 (and .def_262 .def_270)))
(let ((.def_278 (and .def_271 .def_277)))
(let ((.def_256 (= .def_186 b.event_is_timed__AT1)))
(let ((.def_254 (= b.event_is_timed__AT0 .def_185)))
(let ((.def_257 (and .def_254 .def_256)))
(let ((.def_243 (and .def_235 .def_242)))
(let ((.def_188 (= b.y__AT0 0.0 )))
(let ((.def_95 (<= 0.0 b.speed_y__AT0)))
(let ((.def_96 (not .def_95)))
(let ((.def_189 (and .def_96 .def_188)))
(let ((.def_244 (or .def_189 .def_243)))
(let ((.def_210 (or b.counter.0__AT0 .def_209)))
(let ((.def_208 (or .def_38 b.counter.0__AT1)))
(let ((.def_211 (and .def_208 .def_210)))
(let ((.def_212 (and .def_197 .def_211)))
(let ((.def_213 (or b.counter.1__AT0 .def_212)))
(let ((.def_207 (or .def_36 b.counter.1__AT1)))
(let ((.def_214 (and .def_207 .def_213)))
(let ((.def_227 (and .def_204 .def_214)))
(let ((.def_228 (or b.counter.2__AT0 .def_227)))
(let ((.def_222 (and .def_38 .def_197)))
(let ((.def_223 (or b.counter.1__AT0 .def_222)))
(let ((.def_224 (and .def_207 .def_223)))
(let ((.def_225 (and b.counter.2__AT1 .def_224)))
(let ((.def_226 (or .def_41 .def_225)))
(let ((.def_229 (and .def_226 .def_228)))
(let ((.def_230 (and b.counter.3__AT1 .def_229)))
(let ((.def_231 (or b.counter.3__AT0 .def_230)))
(let ((.def_215 (and b.counter.2__AT1 .def_214)))
(let ((.def_216 (or b.counter.2__AT0 .def_215)))
(let ((.def_201 (or b.counter.1__AT0 b.counter.1__AT1)))
(let ((.def_199 (and .def_197 b.counter.0__AT1)))
(let ((.def_200 (or .def_36 .def_199)))
(let ((.def_202 (and .def_200 .def_201)))
(let ((.def_205 (and .def_202 .def_204)))
(let ((.def_206 (or .def_41 .def_205)))
(let ((.def_217 (and .def_206 .def_216)))
(let ((.def_220 (and .def_217 .def_219)))
(let ((.def_221 (or .def_44 .def_220)))
(let ((.def_232 (and .def_221 .def_231)))
(let ((.def_193 (* (- 1.0) b.speed_y__AT0)))
(let ((.def_194 (* .def_192 .def_193)))
(let ((.def_195 (= b.speed_y__AT1 .def_194)))
(let ((.def_233 (and .def_195 .def_232)))
(let ((.def_190 (not .def_189)))
(let ((.def_234 (or .def_190 .def_233)))
(let ((.def_245 (and .def_234 .def_244)))
(let ((.def_247 (and .def_245 .def_246)))
(let ((.def_248 (and .def_167 .def_247)))
(let ((.def_250 (and .def_248 .def_249)))
(let ((.def_251 (or .def_185 .def_250)))
(let ((.def_252 (or b.EVENT.1__AT0 .def_251)))
(let ((.def_177 (* (- 1.0) b.y__AT1)))
(let ((.def_85 (* b.speed_y__AT0 b.delta__AT0)))
(let ((.def_180 (+ .def_85 .def_177)))
(let ((.def_80 (* b.delta__AT0 b.delta__AT0)))
(let ((.def_84 (* .def_80 .def_83)))
(let ((.def_181 (+ .def_84 .def_180)))
(let ((.def_182 (+ b.y__AT0 .def_181)))
(let ((.def_183 (= .def_182 0.0 )))
(let ((.def_169 (* b.delta__AT0 .def_82)))
(let ((.def_172 (+ .def_169 .def_171)))
(let ((.def_173 (+ b.speed_y__AT0 .def_172)))
(let ((.def_174 (= .def_173 0.0 )))
(let ((.def_159 (* (- 1.0) b.x__AT1)))
(let ((.def_163 (+ .def_159 b.x__AT0)))
(let ((.def_157 (* b.delta__AT0 b.speed_x__AT0)))
(let ((.def_164 (+ .def_157 .def_163)))
(let ((.def_165 (= .def_164 0.0 )))
(let ((.def_168 (and .def_165 .def_167)))
(let ((.def_175 (and .def_168 .def_174)))
(let ((.def_184 (and .def_175 .def_183)))
(let ((.def_187 (or .def_184 .def_186)))
(let ((.def_253 (and .def_187 .def_252)))
(let ((.def_258 (and .def_253 .def_257)))
(let ((.def_279 (and .def_258 .def_278)))
(let ((.def_288 (and .def_279 .def_287)))
(let ((.def_291 (and .def_288 .def_290)))
(let ((.def_295 (and .def_291 .def_294)))
(let ((.def_296 (and .def_55 .def_295)))
(let ((.def_313 (and .def_296 .def_312)))
(let ((.def_324 (and .def_313 .def_323)))
(let ((.def_135 (* b.delta__AT0 .def_134)))
(let ((.def_138 (<= .def_135 b.speed_y__AT0)))
(let ((.def_145 (not .def_138)))
(let ((.def_146 (or .def_95 .def_145)))
(let ((.def_136 (<= b.speed_y__AT0 .def_135)))
(let ((.def_109 (<= b.speed_y__AT0 0.0 )))
(let ((.def_110 (not .def_109)))
(let ((.def_144 (or .def_110 .def_136)))
(let ((.def_147 (and .def_144 .def_146)))
(let ((.def_148 (or .def_125 .def_147)))
(let ((.def_140 (not .def_136)))
(let ((.def_141 (or .def_109 .def_140)))
(let ((.def_139 (or .def_96 .def_138)))
(let ((.def_142 (and .def_139 .def_141)))
(let ((.def_143 (or .def_130 .def_142)))
(let ((.def_149 (and .def_143 .def_148)))
(let ((.def_137 (and .def_109 .def_136)))
(let ((.def_150 (and .def_137 .def_149)))
(let ((.def_91 (* b.delta__AT0 .def_90)))
(let ((.def_92 (+ b.speed_y__AT0 .def_91)))
(let ((.def_107 (<= .def_92 0.0 )))
(let ((.def_108 (not .def_107)))
(let ((.def_128 (or .def_108 .def_109)))
(let ((.def_93 (<= 0.0 .def_92)))
(let ((.def_127 (or .def_93 .def_96)))
(let ((.def_129 (and .def_127 .def_128)))
(let ((.def_131 (or .def_129 .def_130)))
(let ((.def_94 (not .def_93)))
(let ((.def_123 (or .def_94 .def_95)))
(let ((.def_122 (or .def_107 .def_110)))
(let ((.def_124 (and .def_122 .def_123)))
(let ((.def_126 (or .def_124 .def_125)))
(let ((.def_132 (and .def_126 .def_131)))
(let ((.def_121 (and .def_93 .def_95)))
(let ((.def_133 (and .def_121 .def_132)))
(let ((.def_151 (or .def_133 .def_150)))
(let ((.def_86 (+ .def_84 .def_85)))
(let ((.def_87 (+ b.y__AT0 .def_86)))
(let ((.def_101 (<= .def_87 0.0 )))
(let ((.def_115 (not .def_101)))
(let ((.def_99 (<= b.y__AT0 0.0 )))
(let ((.def_116 (or .def_99 .def_115)))
(let ((.def_74 (<= 0.0 b.y__AT0)))
(let ((.def_113 (not .def_74)))
(let ((.def_88 (<= 0.0 .def_87)))
(let ((.def_114 (or .def_88 .def_113)))
(let ((.def_117 (and .def_114 .def_116)))
(let ((.def_111 (or .def_108 .def_110)))
(let ((.def_112 (not .def_111)))
(let ((.def_118 (or .def_112 .def_117)))
(let ((.def_103 (not .def_88)))
(let ((.def_104 (or .def_74 .def_103)))
(let ((.def_100 (not .def_99)))
(let ((.def_102 (or .def_100 .def_101)))
(let ((.def_105 (and .def_102 .def_104)))
(let ((.def_97 (or .def_94 .def_96)))
(let ((.def_98 (not .def_97)))
(let ((.def_106 (or .def_98 .def_105)))
(let ((.def_119 (and .def_106 .def_118)))
(let ((.def_89 (and .def_74 .def_88)))
(let ((.def_120 (and .def_89 .def_119)))
(let ((.def_152 (and .def_120 .def_151)))
(let ((.def_153 (and .def_64 .def_152)))
(let ((.def_154 (and .def_72 .def_153)))
(let ((.def_75 (and .def_73 .def_74)))
(let ((.def_58 (or .def_55 .def_57)))
(let ((.def_48 (or .def_36 .def_38)))
(let ((.def_52 (or b.counter.3__AT0 .def_48)))
(let ((.def_49 (or b.counter.2__AT0 .def_48)))
(let ((.def_47 (or .def_38 .def_41)))
(let ((.def_50 (and .def_47 .def_49)))
(let ((.def_51 (or .def_44 .def_50)))
(let ((.def_53 (and .def_51 .def_52)))
(let ((.def_59 (and .def_53 .def_58)))
(let ((.def_76 (and .def_59 .def_75)))
(let ((.def_42 (and .def_39 .def_41)))
(let ((.def_45 (and .def_42 .def_44)))
(let ((.def_33 (= b.speed_y__AT0 0.0 )))
(let ((.def_30 (= b.y__AT0 10.0 )))
(let ((.def_25 (= b.time__AT0 0.0 )))
(let ((.def_27 (and .def_25 b.event_is_timed__AT0)))
(let ((.def_31 (and .def_27 .def_30)))
(let ((.def_34 (and .def_31 .def_33)))
(let ((.def_46 (and .def_34 .def_45)))
(let ((.def_77 (and .def_46 .def_76)))
(let ((.def_17 (or b.counter.1__AT3 .def_9)))
(let ((.def_18 (or b.counter.2__AT3 .def_17)))
(let ((.def_10 (and .def_6 .def_9)))
(let ((.def_16 (or .def_4 .def_10)))
(let ((.def_19 (and .def_16 .def_18)))
(let ((.def_20 (or b.counter.3__AT3 .def_19)))
(let ((.def_11 (or b.counter.2__AT3 .def_10)))
(let ((.def_7 (or .def_4 .def_6)))
(let ((.def_12 (and .def_7 .def_11)))
(let ((.def_15 (or .def_12 .def_14)))
(let ((.def_21 (and .def_15 .def_20)))
(let ((.def_22 (not .def_21)))
(let ((.def_78 (and .def_22 .def_77)))
(let ((.def_155 (and .def_78 .def_154)))
(let ((.def_325 (and .def_155 .def_324)))
(let ((.def_395 (and .def_325 .def_394)))
(let ((.def_560 (and .def_395 .def_559)))
(let ((.def_630 (and .def_560 .def_629)))
(let ((.def_787 (and .def_630 .def_786)))
(let ((.def_857 (and .def_787 .def_856)))
.def_857))))))))))))))))))))))))))))))))))))))))))))))))))))))))))))))))))))))))))))))))))))))))))))))))))))))))))))))))))))))))))))))))))))))))))))))))))))))))))))))))))))))))))))))))))))))))))))))))))))))))))))))))))))))))))))))))))))))))))))))))))))))))))))))))))))))))))))))))))))))))))))))))))))))))))))))))))))))))))))))))))))))))))))))))))))))))))))))))))))))))))))))))))))))))))))))))))))))))))))))))))))))))))))))))))))))))))))))))))))))))))))))))))))))))))))))))))))))))))))))))))))))))))))))))))))))))))))))))))))))))))))))))))))))))))))))))))))))))))))))))))))))))))))))))))))))))))))))))))))))))))))))))))))))))))))))))))))))))))))))))))))))))))))))))))))))))))))))))))))))))))))))))))))))))))))))))))))))))))))))))))))))))))))))))))))))))))))))))))))))))))))))))))))))))))
(check-sat)
(exit)
